 Minimize
[ 1.0000000000000000 Z0 * Z70  ]
Subject to
c1: [ 500.0000000000000000 Z0 * Z64  + 120.0000000000000000 Z0 * Z65  + 100.0000000000000000 Z0 * Z66 -1.0000000000000000 Z0 * Z70  + 1100.0000000000000000 Z64 * Z64  + 850.0000000000000000 Z65 * Z65  + 1225.0000000000000000 Z66 * Z66  ] = -1085.000000
c2: [ 1.0000000000000000 Z0 * Z1 -17.0648464163822986 Z55 * Z79  + 17.0648464163822986 Z55 * Z92  ] = 0.000000
c3: [ 1.0000000000000000 Z0 * Z2  + 17.0648464163822986 Z55 * Z79 -17.0648464163822986 Z55 * Z92  ] = 0.000000
c4: [ 1.0000000000000000 Z0 * Z3 -1.6171224732461400 Z56 * Z95  + 1.6171224732461400 Z56 * Z96 -13.6979785969083991 Z56 * Z98  + 13.6979785969083991 Z56 * Z102 -1.6171224732461400 Z56 * Z120  + 1.6171224732461400 Z56 * Z121  ] = 0.000000
c5: [ 1.0000000000000000 Z0 * Z4  + 1.6171224732461400 Z56 * Z96  + 13.6979785969083991 Z56 * Z98 -1.6171224732461400 Z56 * Z99 -13.6979785969083991 Z56 * Z102  + 1.6171224732461400 Z56 * Z121 -1.6171224732461400 Z56 * Z122  ] = 0.000000
c6: [ 1.0000000000000000 Z0 * Z5 -1.2820091384241099 Z57 * Z86  + 1.2820091384241099 Z57 * Z87 -5.5882449623615296 Z57 * Z89  + 5.5882449623615296 Z57 * Z93 -1.2820091384241099 Z57 * Z116  + 1.2820091384241099 Z57 * Z117  ] = 0.000000
c7: [ 1.0000000000000000 Z0 * Z6  + 1.2820091384241099 Z57 * Z87  + 5.5882449623615296 Z57 * Z89 -1.2820091384241099 Z57 * Z90 -5.5882449623615296 Z57 * Z93  + 1.2820091384241099 Z57 * Z117 -1.2820091384241099 Z57 * Z118  ] = 0.000000
c8: [ 1.0000000000000000 Z0 * Z7 -1.1550874808900999 Z58 * Z90  + 1.1550874808900999 Z58 * Z91 -9.7842704263631699 Z58 * Z94  + 9.7842704263631699 Z58 * Z97 -1.1550874808900999 Z58 * Z118  + 1.1550874808900999 Z58 * Z119  ] = 0.000000
c9: [ 1.0000000000000000 Z0 * Z8  + 1.1550874808900999 Z58 * Z91  + 9.7842704263631699 Z58 * Z94 -1.1550874808900999 Z58 * Z95 -9.7842704263631699 Z58 * Z97  + 1.1550874808900999 Z58 * Z119 -1.1550874808900999 Z58 * Z120  ] = 0.000000
c10: [ 1.0000000000000000 Z0 * Z9  + 16.0000000000000000 Z59 * Z76 -16.0000000000000000 Z59 * Z101  ] = 0.000000
c11: [ 1.0000000000000000 Z0 * Z10 -16.0000000000000000 Z59 * Z76  + 16.0000000000000000 Z59 * Z101  ] = 0.000000
c12: [ 1.0000000000000000 Z0 * Z11 -1.9421912487147299 Z60 * Z80  + 1.9421912487147299 Z60 * Z81 -10.5106820518678994 Z60 * Z84  + 10.5106820518678994 Z60 * Z88 -1.9421912487147299 Z60 * Z113  + 1.9421912487147299 Z60 * Z114  ] = 0.000000
c13: [ 1.0000000000000000 Z0 * Z12  + 1.9421912487147299 Z60 * Z81  + 10.5106820518678994 Z60 * Z84 -1.9421912487147299 Z60 * Z86 -10.5106820518678994 Z60 * Z88  + 1.9421912487147299 Z60 * Z114 -1.9421912487147299 Z60 * Z116  ] = 0.000000
c14: [ 1.0000000000000000 Z0 * Z13 -17.3611111111111001 Z61 * Z73  + 17.3611111111111001 Z61 * Z83  ] = 0.000000
c15: [ 1.0000000000000000 Z0 * Z14  + 17.3611111111111001 Z61 * Z73 -17.3611111111111001 Z61 * Z83  ] = 0.000000
c16: [ 1.0000000000000000 Z0 * Z15  + 1.3651877133105801 Z62 * Z82  + 11.6040955631399001 Z62 * Z85 -1.3651877133105801 Z62 * Z104 -11.6040955631399001 Z62 * Z105  + 1.3651877133105801 Z62 * Z115 -1.3651877133105801 Z62 * Z124  ] = 0.000000
c17: [ 1.0000000000000000 Z0 * Z16 -1.3651877133105801 Z62 * Z80  + 1.3651877133105801 Z62 * Z82 -11.6040955631399001 Z62 * Z85  + 11.6040955631399001 Z62 * Z105 -1.3651877133105801 Z62 * Z113  + 1.3651877133105801 Z62 * Z115  ] = 0.000000
c18: [ 1.0000000000000000 Z0 * Z17 -1.1876043792911499 Z63 * Z99  + 1.1876043792911499 Z63 * Z100 -5.9751345333085899 Z63 * Z103  + 5.9751345333085899 Z63 * Z106 -1.1876043792911499 Z63 * Z122  + 1.1876043792911499 Z63 * Z123  ] = 0.000000
c19: [ 1.0000000000000000 Z0 * Z18  + 1.1876043792911499 Z63 * Z100  + 5.9751345333085899 Z63 * Z103 -1.1876043792911499 Z63 * Z104 -5.9751345333085899 Z63 * Z106  + 1.1876043792911499 Z63 * Z123 -1.1876043792911499 Z63 * Z124  ] = 0.000000
c20: [ 1.0000000000000000 Z0 * Z19 -17.0648464163822986 Z55 * Z77  + 17.0648464163822986 Z55 * Z78 -17.0648464163822986 Z55 * Z111  + 17.0648464163822986 Z55 * Z112  ] = 0.000000
c21: [ 1.0000000000000000 Z0 * Z20  + 17.0648464163822986 Z55 * Z78 -17.0648464163822986 Z55 * Z90  + 17.0648464163822986 Z55 * Z112 -17.0648464163822986 Z55 * Z118  ] = 0.000000
c22: [ 1.0000000000000000 Z0 * Z21 -13.6234785969084005 Z56 * Z95  + 13.6979785969083991 Z56 * Z96  + 1.6171224732461400 Z56 * Z98 -1.6171224732461400 Z56 * Z102 -13.6234785969084005 Z56 * Z120  + 13.6979785969083991 Z56 * Z121  ] = 0.000000
c23: [ 1.0000000000000000 Z0 * Z22  + 13.6979785969083991 Z56 * Z96 -1.6171224732461400 Z56 * Z98 -13.6234785969084005 Z56 * Z99  + 1.6171224732461400 Z56 * Z102  + 13.6979785969083991 Z56 * Z121 -13.6234785969084005 Z56 * Z122  ] = 0.000000
c24: [ 1.0000000000000000 Z0 * Z23 -5.4092449623615302 Z57 * Z86  + 5.5882449623615296 Z57 * Z87  + 1.2820091384241099 Z57 * Z89 -1.2820091384241099 Z57 * Z93 -5.4092449623615302 Z57 * Z116  + 5.5882449623615296 Z57 * Z117  ] = 0.000000
c25: [ 1.0000000000000000 Z0 * Z24  + 5.5882449623615296 Z57 * Z87 -1.2820091384241099 Z57 * Z89 -5.4092449623615302 Z57 * Z90  + 1.2820091384241099 Z57 * Z93  + 5.5882449623615296 Z57 * Z117 -5.4092449623615302 Z57 * Z118  ] = 0.000000
c26: [ 1.0000000000000000 Z0 * Z25 -9.6797704263631701 Z58 * Z90  + 9.7842704263631699 Z58 * Z91  + 1.1550874808900999 Z58 * Z94 -1.1550874808900999 Z58 * Z97 -9.6797704263631701 Z58 * Z118  + 9.7842704263631699 Z58 * Z119  ] = 0.000000
c27: [ 1.0000000000000000 Z0 * Z26  + 9.7842704263631699 Z58 * Z91 -1.1550874808900999 Z58 * Z94 -9.6797704263631701 Z58 * Z95  + 1.1550874808900999 Z58 * Z97  + 9.7842704263631699 Z58 * Z119 -9.6797704263631701 Z58 * Z120  ] = 0.000000
c28: [ 1.0000000000000000 Z0 * Z27  + 16.0000000000000000 Z59 * Z75 -16.0000000000000000 Z59 * Z99  + 16.0000000000000000 Z59 * Z110 -16.0000000000000000 Z59 * Z122  ] = 0.000000
c29: [ 1.0000000000000000 Z0 * Z28 -16.0000000000000000 Z59 * Z74  + 16.0000000000000000 Z59 * Z75 -16.0000000000000000 Z59 * Z109  + 16.0000000000000000 Z59 * Z110  ] = 0.000000
c30: [ 1.0000000000000000 Z0 * Z29 -10.4316820518679005 Z60 * Z80  + 10.5106820518678994 Z60 * Z81  + 1.9421912487147299 Z60 * Z84 -1.9421912487147299 Z60 * Z88 -10.4316820518679005 Z60 * Z113  + 10.5106820518678994 Z60 * Z114  ] = 0.000000
c31: [ 1.0000000000000000 Z0 * Z30  + 10.5106820518678994 Z60 * Z81 -1.9421912487147299 Z60 * Z84 -10.4316820518679005 Z60 * Z86  + 1.9421912487147299 Z60 * Z88  + 10.5106820518678994 Z60 * Z114 -10.4316820518679005 Z60 * Z116  ] = 0.000000
c32: [ 1.0000000000000000 Z0 * Z31 -17.3611111111111001 Z61 * Z71  + 17.3611111111111001 Z61 * Z72 -17.3611111111111001 Z61 * Z107  + 17.3611111111111001 Z61 * Z108  ] = 0.000000
c33: [ 1.0000000000000000 Z0 * Z32  + 17.3611111111111001 Z61 * Z72 -17.3611111111111001 Z61 * Z80  + 17.3611111111111001 Z61 * Z108 -17.3611111111111001 Z61 * Z113  ] = 0.000000
c34: [ 1.0000000000000000 Z0 * Z33  + 11.6040955631399001 Z62 * Z82 -1.3651877133105801 Z62 * Z85 -11.5160955631398991 Z62 * Z104  + 1.3651877133105801 Z62 * Z105  + 11.6040955631399001 Z62 * Z115 -11.5160955631398991 Z62 * Z124  ] = 0.000000
c35: [ 1.0000000000000000 Z0 * Z34 -11.5160955631398991 Z62 * Z80  + 11.6040955631399001 Z62 * Z82  + 1.3651877133105801 Z62 * Z85 -1.3651877133105801 Z62 * Z105 -11.5160955631398991 Z62 * Z113  + 11.6040955631399001 Z62 * Z115  ] = 0.000000
c36: [ 1.0000000000000000 Z0 * Z35 -5.8221345333085903 Z63 * Z99  + 5.9751345333085899 Z63 * Z100  + 1.1876043792911499 Z63 * Z103 -1.1876043792911499 Z63 * Z106 -5.8221345333085903 Z63 * Z122  + 5.9751345333085899 Z63 * Z123  ] = 0.000000
c37: [ 1.0000000000000000 Z0 * Z36  + 5.9751345333085899 Z63 * Z100 -1.1876043792911499 Z63 * Z103 -5.8221345333085903 Z63 * Z104  + 1.1876043792911499 Z63 * Z106  + 5.9751345333085899 Z63 * Z123 -5.8221345333085903 Z63 * Z124  ] = 0.000000
c38: [ 1.0000000000000000 Z1 * Z1  + 1.0000000000000000 Z19 * Z19  ] <= 9.000000
c39: [ 1.0000000000000000 Z2 * Z2  + 1.0000000000000000 Z20 * Z20  ] <= 9.000000
c40: [ 1.0000000000000000 Z3 * Z3  + 1.0000000000000000 Z21 * Z21  ] <= 6.250000
c41: [ 1.0000000000000000 Z4 * Z4  + 1.0000000000000000 Z22 * Z22  ] <= 6.250000
c42: [ 1.0000000000000000 Z5 * Z5  + 1.0000000000000000 Z23 * Z23  ] <= 2.250000
c43: [ 1.0000000000000000 Z6 * Z6  + 1.0000000000000000 Z24 * Z24  ] <= 2.250000
c44: [ 1.0000000000000000 Z7 * Z7  + 1.0000000000000000 Z25 * Z25  ] <= 2.250000
c45: [ 1.0000000000000000 Z8 * Z8  + 1.0000000000000000 Z26 * Z26  ] <= 2.250000
c46: [ 1.0000000000000000 Z9 * Z9  + 1.0000000000000000 Z27 * Z27  ] <= 6.250000
c47: [ 1.0000000000000000 Z10 * Z10  + 1.0000000000000000 Z28 * Z28  ] <= 6.250000
c48: [ 1.0000000000000000 Z11 * Z11  + 1.0000000000000000 Z29 * Z29  ] <= 6.250000
c49: [ 1.0000000000000000 Z12 * Z12  + 1.0000000000000000 Z30 * Z30  ] <= 6.250000
c50: [ 1.0000000000000000 Z13 * Z13  + 1.0000000000000000 Z31 * Z31  ] <= 6.250000
c51: [ 1.0000000000000000 Z14 * Z14  + 1.0000000000000000 Z32 * Z32  ] <= 6.250000
c52: [ 1.0000000000000000 Z15 * Z15  + 1.0000000000000000 Z33 * Z33  ] <= 6.250000
c53: [ 1.0000000000000000 Z16 * Z16  + 1.0000000000000000 Z34 * Z34  ] <= 6.250000
c54: [ 1.0000000000000000 Z17 * Z17  + 1.0000000000000000 Z35 * Z35  ] <= 6.250000
c55: [ 1.0000000000000000 Z18 * Z18  + 1.0000000000000000 Z36 * Z36  ] <= 6.250000
c56: [ 1.0000000000000000 Z37 * Z37  + 1.0000000000000000 Z46 * Z46  ] <= 1.210000
c57: [ 1.0000000000000000 Z38 * Z38  + 1.0000000000000000 Z47 * Z47  ] <= 1.210000
c58: [ 1.0000000000000000 Z39 * Z39  + 1.0000000000000000 Z48 * Z48  ] <= 1.210000
c59: [ 1.0000000000000000 Z40 * Z40  + 1.0000000000000000 Z49 * Z49  ] <= 1.210000
c60: [ 1.0000000000000000 Z41 * Z41  + 1.0000000000000000 Z50 * Z50  ] <= 1.210000
c61: [ 1.0000000000000000 Z42 * Z42  + 1.0000000000000000 Z51 * Z51  ] <= 1.210000
c62: [ 1.0000000000000000 Z43 * Z43  + 1.0000000000000000 Z52 * Z52  ] <= 1.210000
c63: [ 1.0000000000000000 Z44 * Z44  + 1.0000000000000000 Z53 * Z53  ] <= 1.210000
c64: [ 1.0000000000000000 Z45 * Z45  + 1.0000000000000000 Z54 * Z54  ] <= 1.210000
c65: [ 1.0000000000000000 Z37 * Z37  + 1.0000000000000000 Z46 * Z46  ] >= 0.810000
c66: [ 1.0000000000000000 Z38 * Z38  + 1.0000000000000000 Z47 * Z47  ] >= 0.810000
c67: [ 1.0000000000000000 Z39 * Z39  + 1.0000000000000000 Z48 * Z48  ] >= 0.810000
c68: [ 1.0000000000000000 Z40 * Z40  + 1.0000000000000000 Z49 * Z49  ] >= 0.810000
c69: [ 1.0000000000000000 Z41 * Z41  + 1.0000000000000000 Z50 * Z50  ] >= 0.810000
c70: [ 1.0000000000000000 Z42 * Z42  + 1.0000000000000000 Z51 * Z51  ] >= 0.810000
c71: [ 1.0000000000000000 Z43 * Z43  + 1.0000000000000000 Z52 * Z52  ] >= 0.810000
c72: [ 1.0000000000000000 Z44 * Z44  + 1.0000000000000000 Z53 * Z53  ] >= 0.810000
c73: [ 1.0000000000000000 Z45 * Z45  + 1.0000000000000000 Z54 * Z54  ] >= 0.810000
c74: [ 1.0000000000000000 Z0 * Z64  ] <= 2.500000
c75: [ 1.0000000000000000 Z0 * Z65  ] <= 3.000000
c76: [ 1.0000000000000000 Z0 * Z66  ] <= 2.700000
c77: [ 1.0000000000000000 Z0 * Z64  ] >= 0.100000
c78: [ 1.0000000000000000 Z0 * Z65  ] >= 0.100000
c79: [ 1.0000000000000000 Z0 * Z66  ] >= 0.100000
c80: [ 1.0000000000000000 Z0 * Z67  ] <= 3.000000
c81: [ 1.0000000000000000 Z0 * Z68  ] <= 3.000000
c82: [ 1.0000000000000000 Z0 * Z69  ] <= 3.000000
c83: [ 1.0000000000000000 Z0 * Z67  ] >= -3.000000
c84: [ 1.0000000000000000 Z0 * Z68  ] >= -3.000000
c85: [ 1.0000000000000000 Z0 * Z69  ] >= -3.000000
c86: [ 1.0000000000000000 Z0 * Z46  ] = 0.000000
c87: [ 1.0000000000000000 Z0 * Z13 -1.0000000000000000 Z0 * Z64  ] = 0.000000
c88: [ 1.0000000000000000 Z0 * Z10 -1.0000000000000000 Z0 * Z65  ] = 0.000000
c89: [ 1.0000000000000000 Z0 * Z1 -1.0000000000000000 Z0 * Z66  ] = 0.000000
c90: [ 1.0000000000000000 Z0 * Z31 -1.0000000000000000 Z0 * Z67  ] = 0.000000
c91: [ 1.0000000000000000 Z0 * Z28 -1.0000000000000000 Z0 * Z68  ] = 0.000000
c92: [ 1.0000000000000000 Z0 * Z19 -1.0000000000000000 Z0 * Z69  ] = 0.000000
c93: [ 1.0000000000000000 Z0 * Z11  + 1.0000000000000000 Z0 * Z14  + 1.0000000000000000 Z0 * Z16  ] = 0.000000
c94: [ 1.0000000000000000 Z0 * Z5  + 1.0000000000000000 Z0 * Z12  ] = -0.900000
c95: [ 1.0000000000000000 Z0 * Z2  + 1.0000000000000000 Z0 * Z6  + 1.0000000000000000 Z0 * Z7  ] = 0.000000
c96: [ 1.0000000000000000 Z0 * Z3  + 1.0000000000000000 Z0 * Z8  ] = -1.000000
c97: [ 1.0000000000000000 Z0 * Z4  + 1.0000000000000000 Z0 * Z9  + 1.0000000000000000 Z0 * Z17  ] = 0.000000
c98: [ 1.0000000000000000 Z0 * Z15  + 1.0000000000000000 Z0 * Z18  ] = -1.250000
c99: [ 1.0000000000000000 Z0 * Z29  + 1.0000000000000000 Z0 * Z32  + 1.0000000000000000 Z0 * Z34  ] = 0.000000
c100: [ 1.0000000000000000 Z0 * Z23  + 1.0000000000000000 Z0 * Z30  ] = -0.300000
c101: [ 1.0000000000000000 Z0 * Z20  + 1.0000000000000000 Z0 * Z24  + 1.0000000000000000 Z0 * Z25  ] = 0.000000
c102: [ 1.0000000000000000 Z0 * Z21  + 1.0000000000000000 Z0 * Z26  ] = -0.350000
c103: [ 1.0000000000000000 Z0 * Z22  + 1.0000000000000000 Z0 * Z27  + 1.0000000000000000 Z0 * Z35  ] = 0.000000
c104: [ 1.0000000000000000 Z0 * Z33  + 1.0000000000000000 Z0 * Z36  ] = -0.500000
ac1: Z0 - 1 = 0
ac2: [ 1.0000000000000000 Z0 * Z79 -1.0000000000000000 Z39 * Z51  ] = 0
ac3: [ 1.0000000000000000 Z0 * Z92 -1.0000000000000000 Z42 * Z48  ] = 0
ac4: [ 1.0000000000000000 Z0 * Z95 -1.0000000000000000 Z43 * Z43  ] = 0
ac5: [ 1.0000000000000000 Z0 * Z96 -1.0000000000000000 Z43 * Z44  ] = 0
ac6: [ 1.0000000000000000 Z43 * Z96 -1.0000000000000000 Z44 * Z95  ] = 0
ac7: [ 1.0000000000000000 Z0 * Z98 -1.0000000000000000 Z43 * Z53  ] = 0
ac8: [ 1.0000000000000000 Z43 * Z98 -1.0000000000000000 Z53 * Z95  ] = 0
ac9: [ 1.0000000000000000 Z44 * Z98 -1.0000000000000000 Z53 * Z96  ] = 0
ac10: [ 1.0000000000000000 Z0 * Z102 -1.0000000000000000 Z44 * Z52  ] = 0
ac11: [ 1.0000000000000000 Z43 * Z102 -1.0000000000000000 Z52 * Z96  ] = 0
ac12: [ 1.0000000000000000 Z0 * Z120 -1.0000000000000000 Z52 * Z52  ] = 0
ac13: [ 1.0000000000000000 Z44 * Z120 -1.0000000000000000 Z52 * Z102  ] = 0
ac14: [ 1.0000000000000000 Z0 * Z121 -1.0000000000000000 Z52 * Z53  ] = 0
ac15: [ 1.0000000000000000 Z43 * Z121 -1.0000000000000000 Z52 * Z98  ] = 0
ac16: [ 1.0000000000000000 Z44 * Z121 -1.0000000000000000 Z53 * Z102  ] = 0
ac17: [ 1.0000000000000000 Z52 * Z121 -1.0000000000000000 Z53 * Z120  ] = 0
ac18: [ 1.0000000000000000 Z96 * Z121 -1.0000000000000000 Z98 * Z102  ] = 0
ac19: [ 1.0000000000000000 Z0 * Z99 -1.0000000000000000 Z44 * Z44  ] = 0
ac20: [ 1.0000000000000000 Z43 * Z99 -1.0000000000000000 Z44 * Z96  ] = 0
ac21: [ 1.0000000000000000 Z95 * Z99 -1.0000000000000000 Z96 * Z96  ] = 0
ac22: [ 1.0000000000000000 Z0 * Z122 -1.0000000000000000 Z53 * Z53  ] = 0
ac23: [ 1.0000000000000000 Z43 * Z122 -1.0000000000000000 Z53 * Z98  ] = 0
ac24: [ 1.0000000000000000 Z52 * Z122 -1.0000000000000000 Z53 * Z121  ] = 0
ac25: [ 1.0000000000000000 Z95 * Z122 -1.0000000000000000 Z98 * Z98  ] = 0
ac26: [ 1.0000000000000000 Z120 * Z122 -1.0000000000000000 Z121 * Z121  ] = 0
ac27: [ 1.0000000000000000 Z0 * Z86 -1.0000000000000000 Z41 * Z41  ] = 0
ac28: [ 1.0000000000000000 Z0 * Z87 -1.0000000000000000 Z41 * Z42  ] = 0
ac29: [ 1.0000000000000000 Z41 * Z87 -1.0000000000000000 Z42 * Z86  ] = 0
ac30: [ 1.0000000000000000 Z0 * Z89 -1.0000000000000000 Z41 * Z51  ] = 0
ac31: [ 1.0000000000000000 Z39 * Z89 -1.0000000000000000 Z41 * Z79  ] = 0
ac32: [ 1.0000000000000000 Z41 * Z89 -1.0000000000000000 Z51 * Z86  ] = 0
ac33: [ 1.0000000000000000 Z42 * Z89 -1.0000000000000000 Z51 * Z87  ] = 0
ac34: [ 1.0000000000000000 Z0 * Z93 -1.0000000000000000 Z42 * Z50  ] = 0
ac35: [ 1.0000000000000000 Z41 * Z93 -1.0000000000000000 Z50 * Z87  ] = 0
ac36: [ 1.0000000000000000 Z48 * Z93 -1.0000000000000000 Z50 * Z92  ] = 0
ac37: [ 1.0000000000000000 Z0 * Z116 -1.0000000000000000 Z50 * Z50  ] = 0
ac38: [ 1.0000000000000000 Z42 * Z116 -1.0000000000000000 Z50 * Z93  ] = 0
ac39: [ 1.0000000000000000 Z0 * Z117 -1.0000000000000000 Z50 * Z51  ] = 0
ac40: [ 1.0000000000000000 Z39 * Z117 -1.0000000000000000 Z50 * Z79  ] = 0
ac41: [ 1.0000000000000000 Z41 * Z117 -1.0000000000000000 Z50 * Z89  ] = 0
ac42: [ 1.0000000000000000 Z42 * Z117 -1.0000000000000000 Z51 * Z93  ] = 0
ac43: [ 1.0000000000000000 Z50 * Z117 -1.0000000000000000 Z51 * Z116  ] = 0
ac44: [ 1.0000000000000000 Z87 * Z117 -1.0000000000000000 Z89 * Z93  ] = 0
ac45: [ 1.0000000000000000 Z0 * Z90 -1.0000000000000000 Z42 * Z42  ] = 0
ac46: [ 1.0000000000000000 Z41 * Z90 -1.0000000000000000 Z42 * Z87  ] = 0
ac47: [ 1.0000000000000000 Z86 * Z90 -1.0000000000000000 Z87 * Z87  ] = 0
ac48: [ 1.0000000000000000 Z0 * Z118 -1.0000000000000000 Z51 * Z51  ] = 0
ac49: [ 1.0000000000000000 Z39 * Z118 -1.0000000000000000 Z51 * Z79  ] = 0
ac50: [ 1.0000000000000000 Z41 * Z118 -1.0000000000000000 Z51 * Z89  ] = 0
ac51: [ 1.0000000000000000 Z50 * Z118 -1.0000000000000000 Z51 * Z117  ] = 0
ac52: [ 1.0000000000000000 Z86 * Z118 -1.0000000000000000 Z89 * Z89  ] = 0
ac53: [ 1.0000000000000000 Z116 * Z118 -1.0000000000000000 Z117 * Z117  ] = 0
ac54: [ 1.0000000000000000 Z0 * Z91 -1.0000000000000000 Z42 * Z43  ] = 0
ac55: [ 1.0000000000000000 Z41 * Z91 -1.0000000000000000 Z43 * Z87  ] = 0
ac56: [ 1.0000000000000000 Z42 * Z91 -1.0000000000000000 Z43 * Z90  ] = 0
ac57: [ 1.0000000000000000 Z0 * Z94 -1.0000000000000000 Z42 * Z52  ] = 0
ac58: [ 1.0000000000000000 Z41 * Z94 -1.0000000000000000 Z52 * Z87  ] = 0
ac59: [ 1.0000000000000000 Z42 * Z94 -1.0000000000000000 Z52 * Z90  ] = 0
ac60: [ 1.0000000000000000 Z43 * Z94 -1.0000000000000000 Z52 * Z91  ] = 0
ac61: [ 1.0000000000000000 Z48 * Z94 -1.0000000000000000 Z52 * Z92  ] = 0
ac62: [ 1.0000000000000000 Z50 * Z94 -1.0000000000000000 Z52 * Z93  ] = 0
ac63: [ 1.0000000000000000 Z0 * Z97 -1.0000000000000000 Z43 * Z51  ] = 0
ac64: [ 1.0000000000000000 Z39 * Z97 -1.0000000000000000 Z43 * Z79  ] = 0
ac65: [ 1.0000000000000000 Z41 * Z97 -1.0000000000000000 Z43 * Z89  ] = 0
ac66: [ 1.0000000000000000 Z42 * Z97 -1.0000000000000000 Z51 * Z91  ] = 0
ac67: [ 1.0000000000000000 Z43 * Z97 -1.0000000000000000 Z51 * Z95  ] = 0
ac68: [ 1.0000000000000000 Z44 * Z97 -1.0000000000000000 Z51 * Z96  ] = 0
ac69: [ 1.0000000000000000 Z87 * Z97 -1.0000000000000000 Z89 * Z91  ] = 0
ac70: [ 1.0000000000000000 Z0 * Z119 -1.0000000000000000 Z51 * Z52  ] = 0
ac71: [ 1.0000000000000000 Z39 * Z119 -1.0000000000000000 Z52 * Z79  ] = 0
ac72: [ 1.0000000000000000 Z41 * Z119 -1.0000000000000000 Z52 * Z89  ] = 0
ac73: [ 1.0000000000000000 Z42 * Z119 -1.0000000000000000 Z51 * Z94  ] = 0
ac74: [ 1.0000000000000000 Z43 * Z119 -1.0000000000000000 Z52 * Z97  ] = 0
ac75: [ 1.0000000000000000 Z44 * Z119 -1.0000000000000000 Z51 * Z102  ] = 0
ac76: [ 1.0000000000000000 Z50 * Z119 -1.0000000000000000 Z52 * Z117  ] = 0
ac77: [ 1.0000000000000000 Z51 * Z119 -1.0000000000000000 Z52 * Z118  ] = 0
ac78: [ 1.0000000000000000 Z87 * Z119 -1.0000000000000000 Z89 * Z94  ] = 0
ac79: [ 1.0000000000000000 Z91 * Z119 -1.0000000000000000 Z94 * Z97  ] = 0
ac80: [ 1.0000000000000000 Z93 * Z119 -1.0000000000000000 Z94 * Z117  ] = 0
ac81: [ 1.0000000000000000 Z96 * Z119 -1.0000000000000000 Z97 * Z102  ] = 0
ac82: [ 1.0000000000000000 Z0 * Z76 -1.0000000000000000 Z38 * Z53  ] = 0
ac83: [ 1.0000000000000000 Z0 * Z101 -1.0000000000000000 Z44 * Z47  ] = 0
ac84: [ 1.0000000000000000 Z43 * Z101 -1.0000000000000000 Z47 * Z96  ] = 0
ac85: [ 1.0000000000000000 Z44 * Z101 -1.0000000000000000 Z47 * Z99  ] = 0
ac86: [ 1.0000000000000000 Z0 * Z80 -1.0000000000000000 Z40 * Z40  ] = 0
ac87: [ 1.0000000000000000 Z0 * Z81 -1.0000000000000000 Z40 * Z41  ] = 0
ac88: [ 1.0000000000000000 Z40 * Z81 -1.0000000000000000 Z41 * Z80  ] = 0
ac89: [ 1.0000000000000000 Z0 * Z84 -1.0000000000000000 Z40 * Z50  ] = 0
ac90: [ 1.0000000000000000 Z40 * Z84 -1.0000000000000000 Z50 * Z80  ] = 0
ac91: [ 1.0000000000000000 Z41 * Z84 -1.0000000000000000 Z50 * Z81  ] = 0
ac92: [ 1.0000000000000000 Z0 * Z88 -1.0000000000000000 Z41 * Z49  ] = 0
ac93: [ 1.0000000000000000 Z40 * Z88 -1.0000000000000000 Z49 * Z81  ] = 0
ac94: [ 1.0000000000000000 Z41 * Z88 -1.0000000000000000 Z49 * Z86  ] = 0
ac95: [ 1.0000000000000000 Z42 * Z88 -1.0000000000000000 Z49 * Z87  ] = 0
ac96: [ 1.0000000000000000 Z0 * Z113 -1.0000000000000000 Z49 * Z49  ] = 0
ac97: [ 1.0000000000000000 Z41 * Z113 -1.0000000000000000 Z49 * Z88  ] = 0
ac98: [ 1.0000000000000000 Z86 * Z113 -1.0000000000000000 Z88 * Z88  ] = 0
ac99: [ 1.0000000000000000 Z0 * Z114 -1.0000000000000000 Z49 * Z50  ] = 0
ac100: [ 1.0000000000000000 Z40 * Z114 -1.0000000000000000 Z49 * Z84  ] = 0
ac101: [ 1.0000000000000000 Z41 * Z114 -1.0000000000000000 Z50 * Z88  ] = 0
ac102: [ 1.0000000000000000 Z42 * Z114 -1.0000000000000000 Z49 * Z93  ] = 0
ac103: [ 1.0000000000000000 Z49 * Z114 -1.0000000000000000 Z50 * Z113  ] = 0
ac104: [ 1.0000000000000000 Z81 * Z114 -1.0000000000000000 Z84 * Z88  ] = 0
ac105: [ 1.0000000000000000 Z87 * Z114 -1.0000000000000000 Z88 * Z93  ] = 0
ac106: [ 1.0000000000000000 Z0 * Z73 -1.0000000000000000 Z37 * Z49  ] = 0
ac107: [ 1.0000000000000000 Z0 * Z83 -1.0000000000000000 Z40 * Z46  ] = 0
ac108: [ 1.0000000000000000 Z40 * Z83 -1.0000000000000000 Z46 * Z80  ] = 0
ac109: [ 1.0000000000000000 Z41 * Z83 -1.0000000000000000 Z46 * Z81  ] = 0
ac110: [ 1.0000000000000000 Z0 * Z82 -1.0000000000000000 Z40 * Z45  ] = 0
ac111: [ 1.0000000000000000 Z40 * Z82 -1.0000000000000000 Z45 * Z80  ] = 0
ac112: [ 1.0000000000000000 Z41 * Z82 -1.0000000000000000 Z45 * Z81  ] = 0
ac113: [ 1.0000000000000000 Z0 * Z85 -1.0000000000000000 Z40 * Z54  ] = 0
ac114: [ 1.0000000000000000 Z40 * Z85 -1.0000000000000000 Z54 * Z80  ] = 0
ac115: [ 1.0000000000000000 Z41 * Z85 -1.0000000000000000 Z54 * Z81  ] = 0
ac116: [ 1.0000000000000000 Z45 * Z85 -1.0000000000000000 Z54 * Z82  ] = 0
ac117: [ 1.0000000000000000 Z46 * Z85 -1.0000000000000000 Z54 * Z83  ] = 0
ac118: [ 1.0000000000000000 Z50 * Z85 -1.0000000000000000 Z54 * Z84  ] = 0
ac119: [ 1.0000000000000000 Z0 * Z104 -1.0000000000000000 Z45 * Z45  ] = 0
ac120: [ 1.0000000000000000 Z40 * Z104 -1.0000000000000000 Z45 * Z82  ] = 0
ac121: [ 1.0000000000000000 Z80 * Z104 -1.0000000000000000 Z82 * Z82  ] = 0
ac122: [ 1.0000000000000000 Z0 * Z105 -1.0000000000000000 Z45 * Z49  ] = 0
ac123: [ 1.0000000000000000 Z37 * Z105 -1.0000000000000000 Z45 * Z73  ] = 0
ac124: [ 1.0000000000000000 Z40 * Z105 -1.0000000000000000 Z49 * Z82  ] = 0
ac125: [ 1.0000000000000000 Z41 * Z105 -1.0000000000000000 Z45 * Z88  ] = 0
ac126: [ 1.0000000000000000 Z45 * Z105 -1.0000000000000000 Z49 * Z104  ] = 0
ac127: [ 1.0000000000000000 Z81 * Z105 -1.0000000000000000 Z82 * Z88  ] = 0
ac128: [ 1.0000000000000000 Z0 * Z115 -1.0000000000000000 Z49 * Z54  ] = 0
ac129: [ 1.0000000000000000 Z37 * Z115 -1.0000000000000000 Z54 * Z73  ] = 0
ac130: [ 1.0000000000000000 Z40 * Z115 -1.0000000000000000 Z49 * Z85  ] = 0
ac131: [ 1.0000000000000000 Z41 * Z115 -1.0000000000000000 Z54 * Z88  ] = 0
ac132: [ 1.0000000000000000 Z45 * Z115 -1.0000000000000000 Z54 * Z105  ] = 0
ac133: [ 1.0000000000000000 Z49 * Z115 -1.0000000000000000 Z54 * Z113  ] = 0
ac134: [ 1.0000000000000000 Z50 * Z115 -1.0000000000000000 Z54 * Z114  ] = 0
ac135: [ 1.0000000000000000 Z81 * Z115 -1.0000000000000000 Z85 * Z88  ] = 0
ac136: [ 1.0000000000000000 Z82 * Z115 -1.0000000000000000 Z85 * Z105  ] = 0
ac137: [ 1.0000000000000000 Z84 * Z115 -1.0000000000000000 Z85 * Z114  ] = 0
ac138: [ 1.0000000000000000 Z0 * Z124 -1.0000000000000000 Z54 * Z54  ] = 0
ac139: [ 1.0000000000000000 Z40 * Z124 -1.0000000000000000 Z54 * Z85  ] = 0
ac140: [ 1.0000000000000000 Z49 * Z124 -1.0000000000000000 Z54 * Z115  ] = 0
ac141: [ 1.0000000000000000 Z80 * Z124 -1.0000000000000000 Z85 * Z85  ] = 0
ac142: [ 1.0000000000000000 Z113 * Z124 -1.0000000000000000 Z115 * Z115  ] = 0
ac143: [ 1.0000000000000000 Z0 * Z100 -1.0000000000000000 Z44 * Z45  ] = 0
ac144: [ 1.0000000000000000 Z40 * Z100 -1.0000000000000000 Z44 * Z82  ] = 0
ac145: [ 1.0000000000000000 Z43 * Z100 -1.0000000000000000 Z45 * Z96  ] = 0
ac146: [ 1.0000000000000000 Z44 * Z100 -1.0000000000000000 Z45 * Z99  ] = 0
ac147: [ 1.0000000000000000 Z0 * Z103 -1.0000000000000000 Z44 * Z54  ] = 0
ac148: [ 1.0000000000000000 Z40 * Z103 -1.0000000000000000 Z44 * Z85  ] = 0
ac149: [ 1.0000000000000000 Z43 * Z103 -1.0000000000000000 Z54 * Z96  ] = 0
ac150: [ 1.0000000000000000 Z44 * Z103 -1.0000000000000000 Z54 * Z99  ] = 0
ac151: [ 1.0000000000000000 Z45 * Z103 -1.0000000000000000 Z54 * Z100  ] = 0
ac152: [ 1.0000000000000000 Z47 * Z103 -1.0000000000000000 Z54 * Z101  ] = 0
ac153: [ 1.0000000000000000 Z52 * Z103 -1.0000000000000000 Z54 * Z102  ] = 0
ac154: [ 1.0000000000000000 Z82 * Z103 -1.0000000000000000 Z85 * Z100  ] = 0
ac155: [ 1.0000000000000000 Z0 * Z106 -1.0000000000000000 Z45 * Z53  ] = 0
ac156: [ 1.0000000000000000 Z38 * Z106 -1.0000000000000000 Z45 * Z76  ] = 0
ac157: [ 1.0000000000000000 Z40 * Z106 -1.0000000000000000 Z53 * Z82  ] = 0
ac158: [ 1.0000000000000000 Z43 * Z106 -1.0000000000000000 Z45 * Z98  ] = 0
ac159: [ 1.0000000000000000 Z44 * Z106 -1.0000000000000000 Z53 * Z100  ] = 0
ac160: [ 1.0000000000000000 Z45 * Z106 -1.0000000000000000 Z53 * Z104  ] = 0
ac161: [ 1.0000000000000000 Z49 * Z106 -1.0000000000000000 Z53 * Z105  ] = 0
ac162: [ 1.0000000000000000 Z96 * Z106 -1.0000000000000000 Z98 * Z100  ] = 0
ac163: [ 1.0000000000000000 Z0 * Z123 -1.0000000000000000 Z53 * Z54  ] = 0
ac164: [ 1.0000000000000000 Z38 * Z123 -1.0000000000000000 Z54 * Z76  ] = 0
ac165: [ 1.0000000000000000 Z40 * Z123 -1.0000000000000000 Z53 * Z85  ] = 0
ac166: [ 1.0000000000000000 Z43 * Z123 -1.0000000000000000 Z54 * Z98  ] = 0
ac167: [ 1.0000000000000000 Z44 * Z123 -1.0000000000000000 Z53 * Z103  ] = 0
ac168: [ 1.0000000000000000 Z45 * Z123 -1.0000000000000000 Z54 * Z106  ] = 0
ac169: [ 1.0000000000000000 Z49 * Z123 -1.0000000000000000 Z53 * Z115  ] = 0
ac170: [ 1.0000000000000000 Z52 * Z123 -1.0000000000000000 Z54 * Z121  ] = 0
ac171: [ 1.0000000000000000 Z53 * Z123 -1.0000000000000000 Z54 * Z122  ] = 0
ac172: [ 1.0000000000000000 Z82 * Z123 -1.0000000000000000 Z85 * Z106  ] = 0
ac173: [ 1.0000000000000000 Z96 * Z123 -1.0000000000000000 Z98 * Z103  ] = 0
ac174: [ 1.0000000000000000 Z100 * Z123 -1.0000000000000000 Z103 * Z106  ] = 0
ac175: [ 1.0000000000000000 Z102 * Z123 -1.0000000000000000 Z103 * Z121  ] = 0
ac176: [ 1.0000000000000000 Z105 * Z123 -1.0000000000000000 Z106 * Z115  ] = 0
ac177: [ 1.0000000000000000 Z0 * Z77 -1.0000000000000000 Z39 * Z39  ] = 0
ac178: [ 1.0000000000000000 Z0 * Z78 -1.0000000000000000 Z39 * Z42  ] = 0
ac179: [ 1.0000000000000000 Z39 * Z78 -1.0000000000000000 Z42 * Z77  ] = 0
ac180: [ 1.0000000000000000 Z0 * Z111 -1.0000000000000000 Z48 * Z48  ] = 0
ac181: [ 1.0000000000000000 Z42 * Z111 -1.0000000000000000 Z48 * Z92  ] = 0
ac182: [ 1.0000000000000000 Z90 * Z111 -1.0000000000000000 Z92 * Z92  ] = 0
ac183: [ 1.0000000000000000 Z0 * Z112 -1.0000000000000000 Z48 * Z51  ] = 0
ac184: [ 1.0000000000000000 Z39 * Z112 -1.0000000000000000 Z48 * Z79  ] = 0
ac185: [ 1.0000000000000000 Z41 * Z112 -1.0000000000000000 Z48 * Z89  ] = 0
ac186: [ 1.0000000000000000 Z42 * Z112 -1.0000000000000000 Z51 * Z92  ] = 0
ac187: [ 1.0000000000000000 Z43 * Z112 -1.0000000000000000 Z48 * Z97  ] = 0
ac188: [ 1.0000000000000000 Z48 * Z112 -1.0000000000000000 Z51 * Z111  ] = 0
ac189: [ 1.0000000000000000 Z78 * Z112 -1.0000000000000000 Z79 * Z92  ] = 0
ac190: [ 1.0000000000000000 Z87 * Z112 -1.0000000000000000 Z89 * Z92  ] = 0
ac191: [ 1.0000000000000000 Z91 * Z112 -1.0000000000000000 Z92 * Z97  ] = 0
ac192: [ 1.0000000000000000 Z0 * Z75 -1.0000000000000000 Z38 * Z44  ] = 0
ac193: [ 1.0000000000000000 Z0 * Z110 -1.0000000000000000 Z47 * Z53  ] = 0
ac194: [ 1.0000000000000000 Z38 * Z110 -1.0000000000000000 Z47 * Z76  ] = 0
ac195: [ 1.0000000000000000 Z43 * Z110 -1.0000000000000000 Z47 * Z98  ] = 0
ac196: [ 1.0000000000000000 Z44 * Z110 -1.0000000000000000 Z53 * Z101  ] = 0
ac197: [ 1.0000000000000000 Z45 * Z110 -1.0000000000000000 Z47 * Z106  ] = 0
ac198: [ 1.0000000000000000 Z75 * Z110 -1.0000000000000000 Z76 * Z101  ] = 0
ac199: [ 1.0000000000000000 Z96 * Z110 -1.0000000000000000 Z98 * Z101  ] = 0
ac200: [ 1.0000000000000000 Z100 * Z110 -1.0000000000000000 Z101 * Z106  ] = 0
ac201: [ 1.0000000000000000 Z0 * Z74 -1.0000000000000000 Z38 * Z38  ] = 0
ac202: [ 1.0000000000000000 Z0 * Z109 -1.0000000000000000 Z47 * Z47  ] = 0
ac203: [ 1.0000000000000000 Z44 * Z109 -1.0000000000000000 Z47 * Z101  ] = 0
ac204: [ 1.0000000000000000 Z99 * Z109 -1.0000000000000000 Z101 * Z101  ] = 0
ac205: [ 1.0000000000000000 Z0 * Z71 -1.0000000000000000 Z37 * Z37  ] = 0
ac206: [ 1.0000000000000000 Z0 * Z72 -1.0000000000000000 Z37 * Z40  ] = 0
ac207: [ 1.0000000000000000 Z37 * Z72 -1.0000000000000000 Z40 * Z71  ] = 0
ac208: [ 1.0000000000000000 Z0 * Z107 -1.0000000000000000 Z46 * Z46  ] = 0
ac209: [ 1.0000000000000000 Z40 * Z107 -1.0000000000000000 Z46 * Z83  ] = 0
ac210: [ 1.0000000000000000 Z80 * Z107 -1.0000000000000000 Z83 * Z83  ] = 0
ac211: [ 1.0000000000000000 Z0 * Z108 -1.0000000000000000 Z46 * Z49  ] = 0
ac212: [ 1.0000000000000000 Z37 * Z108 -1.0000000000000000 Z46 * Z73  ] = 0
ac213: [ 1.0000000000000000 Z40 * Z108 -1.0000000000000000 Z49 * Z83  ] = 0
ac214: [ 1.0000000000000000 Z41 * Z108 -1.0000000000000000 Z46 * Z88  ] = 0
ac215: [ 1.0000000000000000 Z45 * Z108 -1.0000000000000000 Z46 * Z105  ] = 0
ac216: [ 1.0000000000000000 Z46 * Z108 -1.0000000000000000 Z49 * Z107  ] = 0
ac217: [ 1.0000000000000000 Z72 * Z108 -1.0000000000000000 Z73 * Z83  ] = 0
ac218: [ 1.0000000000000000 Z81 * Z108 -1.0000000000000000 Z83 * Z88  ] = 0
ac219: [ 1.0000000000000000 Z82 * Z108 -1.0000000000000000 Z83 * Z105  ] = 0
Bounds
1 <= Z0 <= 1
-100000000.0000000000000000 <= Z1 <= 100000000.0000000000000000
-100000000.0000000000000000 <= Z2 <= 100000000.0000000000000000
-100000000.0000000000000000 <= Z3 <= 100000000.0000000000000000
-100000000.0000000000000000 <= Z4 <= 100000000.0000000000000000
-100000000.0000000000000000 <= Z5 <= 100000000.0000000000000000
-100000000.0000000000000000 <= Z6 <= 100000000.0000000000000000
-100000000.0000000000000000 <= Z7 <= 100000000.0000000000000000
-100000000.0000000000000000 <= Z8 <= 100000000.0000000000000000
-100000000.0000000000000000 <= Z9 <= 100000000.0000000000000000
-100000000.0000000000000000 <= Z10 <= 100000000.0000000000000000
-100000000.0000000000000000 <= Z11 <= 100000000.0000000000000000
-100000000.0000000000000000 <= Z12 <= 100000000.0000000000000000
-100000000.0000000000000000 <= Z13 <= 100000000.0000000000000000
-100000000.0000000000000000 <= Z14 <= 100000000.0000000000000000
-100000000.0000000000000000 <= Z15 <= 100000000.0000000000000000
-100000000.0000000000000000 <= Z16 <= 100000000.0000000000000000
-100000000.0000000000000000 <= Z17 <= 100000000.0000000000000000
-100000000.0000000000000000 <= Z18 <= 100000000.0000000000000000
-100000000.0000000000000000 <= Z19 <= 100000000.0000000000000000
-100000000.0000000000000000 <= Z20 <= 100000000.0000000000000000
-100000000.0000000000000000 <= Z21 <= 100000000.0000000000000000
-100000000.0000000000000000 <= Z22 <= 100000000.0000000000000000
-100000000.0000000000000000 <= Z23 <= 100000000.0000000000000000
-100000000.0000000000000000 <= Z24 <= 100000000.0000000000000000
-100000000.0000000000000000 <= Z25 <= 100000000.0000000000000000
-100000000.0000000000000000 <= Z26 <= 100000000.0000000000000000
-100000000.0000000000000000 <= Z27 <= 100000000.0000000000000000
-100000000.0000000000000000 <= Z28 <= 100000000.0000000000000000
-100000000.0000000000000000 <= Z29 <= 100000000.0000000000000000
-100000000.0000000000000000 <= Z30 <= 100000000.0000000000000000
-100000000.0000000000000000 <= Z31 <= 100000000.0000000000000000
-100000000.0000000000000000 <= Z32 <= 100000000.0000000000000000
-100000000.0000000000000000 <= Z33 <= 100000000.0000000000000000
-100000000.0000000000000000 <= Z34 <= 100000000.0000000000000000
-100000000.0000000000000000 <= Z35 <= 100000000.0000000000000000
-100000000.0000000000000000 <= Z36 <= 100000000.0000000000000000
-100000000.0000000000000000 <= Z37 <= 100000000.0000000000000000
-100000000.0000000000000000 <= Z38 <= 100000000.0000000000000000
-100000000.0000000000000000 <= Z39 <= 100000000.0000000000000000
-100000000.0000000000000000 <= Z40 <= 100000000.0000000000000000
-100000000.0000000000000000 <= Z41 <= 100000000.0000000000000000
-100000000.0000000000000000 <= Z42 <= 100000000.0000000000000000
-100000000.0000000000000000 <= Z43 <= 100000000.0000000000000000
-100000000.0000000000000000 <= Z44 <= 100000000.0000000000000000
-100000000.0000000000000000 <= Z45 <= 100000000.0000000000000000
-100000000.0000000000000000 <= Z46 <= 100000000.0000000000000000
-100000000.0000000000000000 <= Z47 <= 100000000.0000000000000000
-100000000.0000000000000000 <= Z48 <= 100000000.0000000000000000
-100000000.0000000000000000 <= Z49 <= 100000000.0000000000000000
-100000000.0000000000000000 <= Z50 <= 100000000.0000000000000000
-100000000.0000000000000000 <= Z51 <= 100000000.0000000000000000
-100000000.0000000000000000 <= Z52 <= 100000000.0000000000000000
-100000000.0000000000000000 <= Z53 <= 100000000.0000000000000000
-100000000.0000000000000000 <= Z54 <= 100000000.0000000000000000
0.0000000000000000 <= Z55 <= 1.0000000000000000
0.0000000000000000 <= Z56 <= 1.0000000000000000
0.0000000000000000 <= Z57 <= 1.0000000000000000
0.0000000000000000 <= Z58 <= 1.0000000000000000
0.0000000000000000 <= Z59 <= 1.0000000000000000
0.0000000000000000 <= Z60 <= 1.0000000000000000
0.0000000000000000 <= Z61 <= 1.0000000000000000
0.0000000000000000 <= Z62 <= 1.0000000000000000
0.0000000000000000 <= Z63 <= 1.0000000000000000
-100000000.0000000000000000 <= Z64 <= 100000000.0000000000000000
-100000000.0000000000000000 <= Z65 <= 100000000.0000000000000000
-100000000.0000000000000000 <= Z66 <= 100000000.0000000000000000
-100000000.0000000000000000 <= Z67 <= 100000000.0000000000000000
-100000000.0000000000000000 <= Z68 <= 100000000.0000000000000000
-100000000.0000000000000000 <= Z69 <= 100000000.0000000000000000
-100000000.0000000000000000 <= Z70 <= 100000000.0000000000000000
-10000000000000000.0000000000000000 <= Z71 <= 10000000000000000.0000000000000000
-10000000000000000.0000000000000000 <= Z72 <= 10000000000000000.0000000000000000
-10000000000000000.0000000000000000 <= Z73 <= 10000000000000000.0000000000000000
-10000000000000000.0000000000000000 <= Z74 <= 10000000000000000.0000000000000000
-10000000000000000.0000000000000000 <= Z75 <= 10000000000000000.0000000000000000
-10000000000000000.0000000000000000 <= Z76 <= 10000000000000000.0000000000000000
-10000000000000000.0000000000000000 <= Z77 <= 10000000000000000.0000000000000000
-10000000000000000.0000000000000000 <= Z78 <= 10000000000000000.0000000000000000
-10000000000000000.0000000000000000 <= Z79 <= 10000000000000000.0000000000000000
-10000000000000000.0000000000000000 <= Z80 <= 10000000000000000.0000000000000000
-10000000000000000.0000000000000000 <= Z81 <= 10000000000000000.0000000000000000
-10000000000000000.0000000000000000 <= Z82 <= 10000000000000000.0000000000000000
-10000000000000000.0000000000000000 <= Z83 <= 10000000000000000.0000000000000000
-10000000000000000.0000000000000000 <= Z84 <= 10000000000000000.0000000000000000
-10000000000000000.0000000000000000 <= Z85 <= 10000000000000000.0000000000000000
-10000000000000000.0000000000000000 <= Z86 <= 10000000000000000.0000000000000000
-10000000000000000.0000000000000000 <= Z87 <= 10000000000000000.0000000000000000
-10000000000000000.0000000000000000 <= Z88 <= 10000000000000000.0000000000000000
-10000000000000000.0000000000000000 <= Z89 <= 10000000000000000.0000000000000000
-10000000000000000.0000000000000000 <= Z90 <= 10000000000000000.0000000000000000
-10000000000000000.0000000000000000 <= Z91 <= 10000000000000000.0000000000000000
-10000000000000000.0000000000000000 <= Z92 <= 10000000000000000.0000000000000000
-10000000000000000.0000000000000000 <= Z93 <= 10000000000000000.0000000000000000
-10000000000000000.0000000000000000 <= Z94 <= 10000000000000000.0000000000000000
-10000000000000000.0000000000000000 <= Z95 <= 10000000000000000.0000000000000000
-10000000000000000.0000000000000000 <= Z96 <= 10000000000000000.0000000000000000
-10000000000000000.0000000000000000 <= Z97 <= 10000000000000000.0000000000000000
-10000000000000000.0000000000000000 <= Z98 <= 10000000000000000.0000000000000000
-10000000000000000.0000000000000000 <= Z99 <= 10000000000000000.0000000000000000
-10000000000000000.0000000000000000 <= Z100 <= 10000000000000000.0000000000000000
-10000000000000000.0000000000000000 <= Z101 <= 10000000000000000.0000000000000000
-10000000000000000.0000000000000000 <= Z102 <= 10000000000000000.0000000000000000
-10000000000000000.0000000000000000 <= Z103 <= 10000000000000000.0000000000000000
-10000000000000000.0000000000000000 <= Z104 <= 10000000000000000.0000000000000000
-10000000000000000.0000000000000000 <= Z105 <= 10000000000000000.0000000000000000
-10000000000000000.0000000000000000 <= Z106 <= 10000000000000000.0000000000000000
-10000000000000000.0000000000000000 <= Z107 <= 10000000000000000.0000000000000000
-10000000000000000.0000000000000000 <= Z108 <= 10000000000000000.0000000000000000
-10000000000000000.0000000000000000 <= Z109 <= 10000000000000000.0000000000000000
-10000000000000000.0000000000000000 <= Z110 <= 10000000000000000.0000000000000000
-10000000000000000.0000000000000000 <= Z111 <= 10000000000000000.0000000000000000
-10000000000000000.0000000000000000 <= Z112 <= 10000000000000000.0000000000000000
-10000000000000000.0000000000000000 <= Z113 <= 10000000000000000.0000000000000000
-10000000000000000.0000000000000000 <= Z114 <= 10000000000000000.0000000000000000
-10000000000000000.0000000000000000 <= Z115 <= 10000000000000000.0000000000000000
-10000000000000000.0000000000000000 <= Z116 <= 10000000000000000.0000000000000000
-10000000000000000.0000000000000000 <= Z117 <= 10000000000000000.0000000000000000
-10000000000000000.0000000000000000 <= Z118 <= 10000000000000000.0000000000000000
-10000000000000000.0000000000000000 <= Z119 <= 10000000000000000.0000000000000000
-10000000000000000.0000000000000000 <= Z120 <= 10000000000000000.0000000000000000
-10000000000000000.0000000000000000 <= Z121 <= 10000000000000000.0000000000000000
-10000000000000000.0000000000000000 <= Z122 <= 10000000000000000.0000000000000000
-10000000000000000.0000000000000000 <= Z123 <= 10000000000000000.0000000000000000
-10000000000000000.0000000000000000 <= Z124 <= 10000000000000000.0000000000000000
Binaries
Z55 Z56 Z57 Z58 Z59 Z60 Z61 Z62 Z63 
End